# Solution for model JobShopModel
# Objective value = 286
y[0,0,1] 1
y[0,1,1] 1
y[0,2,0] 1
y[0,3,1] 1
y[0,4,2] 1
y[1,0,1] 1
y[1,1,1] 1
y[1,2,1] 1
y[1,3,1] 1
y[1,4,1] 1
y[2,0,2] 1
y[2,1,0] 1
y[2,2,2] 1
y[2,3,0] 1
y[2,4,1] 1
y[3,0,0] 1
y[3,1,0] 1
y[3,2,2] 1
y[3,3,1] 1
y[3,4,2] 1
y[4,0,2] 1
y[4,1,2] 1
y[4,2,0] 1
y[4,3,1] 1
y[4,4,0] 1
x[0,0,0,0] 0
x[0,0,0,1] 1
x[0,0,0,2] 0
x[0,0,0,3] 1
x[0,0,0,4] 0
x[0,0,1,0] 0
x[0,0,1,1] 0
x[0,0,1,2] 0
x[0,0,1,3] 0
x[0,0,1,4] 0
x[0,0,2,0] 0
x[0,0,2,1] 0
x[0,0,2,2] 0
x[0,0,2,3] 0
x[0,0,2,4] 1
x[0,0,3,0] 0
x[0,0,3,1] 0
x[0,0,3,2] 0
x[0,0,3,3] 1
x[0,0,3,4] 0
x[0,0,4,0] 0
x[0,0,4,1] 0
x[0,0,4,2] 0
x[0,0,4,3] 0
x[0,0,4,4] 0
x[0,1,0,0] 0
x[0,1,0,1] 0
x[0,1,0,2] 0
x[0,1,0,3] 1
x[0,1,0,4] 0
x[0,1,1,0] 0
x[0,1,1,1] 0
x[0,1,1,2] 0
x[0,1,1,3] 0
x[0,1,1,4] 0
x[0,1,2,0] 0
x[0,1,2,1] 0
x[0,1,2,2] 0
x[0,1,2,3] 0
x[0,1,2,4] 1
x[0,1,3,0] 0
x[0,1,3,1] 0
x[0,1,3,2] 0
x[0,1,3,3] 1
x[0,1,3,4] 0
x[0,1,4,0] 0
x[0,1,4,1] 0
x[0,1,4,2] 0
x[0,1,4,3] 0
x[0,1,4,4] 0
x[0,2,0,0] 0
x[0,2,0,1] 0
x[0,2,0,2] 0
x[0,2,0,3] 0
x[0,2,0,4] 0
x[0,2,1,0] 0
x[0,2,1,1] 0
x[0,2,1,2] 0
x[0,2,1,3] 0
x[0,2,1,4] 0
x[0,2,2,0] 0
x[0,2,2,1] 0
x[0,2,2,2] 0
x[0,2,2,3] 0
x[0,2,2,4] 0
x[0,2,3,0] 0
x[0,2,3,1] 0
x[0,2,3,2] 0
x[0,2,3,3] 0
x[0,2,3,4] 0
x[0,2,4,0] 0
x[0,2,4,1] 0
x[0,2,4,2] 0
x[0,2,4,3] 0
x[0,2,4,4] 0
x[0,3,0,0] 0
x[0,3,0,1] 0
x[0,3,0,2] 0
x[0,3,0,3] 0
x[0,3,0,4] 0
x[0,3,1,0] 0
x[0,3,1,1] 0
x[0,3,1,2] 0
x[0,3,1,3] 0
x[0,3,1,4] 0
x[0,3,2,0] 0
x[0,3,2,1] 0
x[0,3,2,2] 0
x[0,3,2,3] 0
x[0,3,2,4] 0
x[0,3,3,0] 0
x[0,3,3,1] 0
x[0,3,3,2] 0
x[0,3,3,3] 0
x[0,3,3,4] 0
x[0,3,4,0] 0
x[0,3,4,1] 0
x[0,3,4,2] 0
x[0,3,4,3] 0
x[0,3,4,4] 0
x[0,4,0,0] 0
x[0,4,0,1] 0
x[0,4,0,2] 0
x[0,4,0,3] 0
x[0,4,0,4] 0
x[0,4,1,0] 0
x[0,4,1,1] 0
x[0,4,1,2] 0
x[0,4,1,3] 0
x[0,4,1,4] 0
x[0,4,2,0] 0
x[0,4,2,1] 0
x[0,4,2,2] 0
x[0,4,2,3] 0
x[0,4,2,4] 0
x[0,4,3,0] 0
x[0,4,3,1] 0
x[0,4,3,2] 0
x[0,4,3,3] 0
x[0,4,3,4] 0
x[0,4,4,0] 0
x[0,4,4,1] 0
x[0,4,4,2] 0
x[0,4,4,3] 0
x[0,4,4,4] 0
x[1,0,0,0] 0
x[1,0,0,1] 0
x[1,0,0,2] 0
x[1,0,0,3] 0
x[1,0,0,4] 0
x[1,0,1,0] 0
x[1,0,1,1] 1
x[1,0,1,2] 1
x[1,0,1,3] 1
x[1,0,1,4] 1
x[1,0,2,0] 0
x[1,0,2,1] 0
x[1,0,2,2] 0
x[1,0,2,3] 0
x[1,0,2,4] 1
x[1,0,3,0] 0
x[1,0,3,1] 0
x[1,0,3,2] 0
x[1,0,3,3] 1
x[1,0,3,4] 0
x[1,0,4,0] 0
x[1,0,4,1] 0
x[1,0,4,2] 0
x[1,0,4,3] 1
x[1,0,4,4] 0
x[1,1,0,0] 0
x[1,1,0,1] 0
x[1,1,0,2] 0
x[1,1,0,3] 0
x[1,1,0,4] 0
x[1,1,1,0] 0
x[1,1,1,1] 0
x[1,1,1,2] 1
x[1,1,1,3] 1
x[1,1,1,4] 1
x[1,1,2,0] 0
x[1,1,2,1] 0
x[1,1,2,2] 0
x[1,1,2,3] 0
x[1,1,2,4] 1
x[1,1,3,0] 0
x[1,1,3,1] 0
x[1,1,3,2] 0
x[1,1,3,3] 1
x[1,1,3,4] 0
x[1,1,4,0] 0
x[1,1,4,1] 0
x[1,1,4,2] 0
x[1,1,4,3] 1
x[1,1,4,4] 0
x[1,2,0,0] 0
x[1,2,0,1] 0
x[1,2,0,2] 0
x[1,2,0,3] 0
x[1,2,0,4] 0
x[1,2,1,0] 0
x[1,2,1,1] 0
x[1,2,1,2] 0
x[1,2,1,3] 0
x[1,2,1,4] 0
x[1,2,2,0] 0
x[1,2,2,1] 0
x[1,2,2,2] 0
x[1,2,2,3] 0
x[1,2,2,4] 1
x[1,2,3,0] 0
x[1,2,3,1] 0
x[1,2,3,2] 0
x[1,2,3,3] 1
x[1,2,3,4] 0
x[1,2,4,0] 0
x[1,2,4,1] 0
x[1,2,4,2] 0
x[1,2,4,3] 0
x[1,2,4,4] 0
x[1,3,0,0] 0
x[1,3,0,1] 0
x[1,3,0,2] 0
x[1,3,0,3] 0
x[1,3,0,4] 0
x[1,3,1,0] 0
x[1,3,1,1] 0
x[1,3,1,2] 1
x[1,3,1,3] 0
x[1,3,1,4] 1
x[1,3,2,0] 0
x[1,3,2,1] 0
x[1,3,2,2] 0
x[1,3,2,3] 0
x[1,3,2,4] 1
x[1,3,3,0] 0
x[1,3,3,1] 0
x[1,3,3,2] 0
x[1,3,3,3] 1
x[1,3,3,4] 0
x[1,3,4,0] 0
x[1,3,4,1] 0
x[1,3,4,2] 0
x[1,3,4,3] 1
x[1,3,4,4] 0
x[1,4,0,0] 0
x[1,4,0,1] 0
x[1,4,0,2] 0
x[1,4,0,3] 0
x[1,4,0,4] 0
x[1,4,1,0] 0
x[1,4,1,1] 0
x[1,4,1,2] 1
x[1,4,1,3] 0
x[1,4,1,4] 0
x[1,4,2,0] 0
x[1,4,2,1] 0
x[1,4,2,2] 0
x[1,4,2,3] 0
x[1,4,2,4] 1
x[1,4,3,0] 0
x[1,4,3,1] 0
x[1,4,3,2] 0
x[1,4,3,3] 1
x[1,4,3,4] 0
x[1,4,4,0] 0
x[1,4,4,1] 0
x[1,4,4,2] 0
x[1,4,4,3] 1
x[1,4,4,4] 0
x[2,0,0,0] 0
x[2,0,0,1] 0
x[2,0,0,2] 0
x[2,0,0,3] 0
x[2,0,0,4] 0
x[2,0,1,0] 0
x[2,0,1,1] 0
x[2,0,1,2] 0
x[2,0,1,3] 0
x[2,0,1,4] 0
x[2,0,2,0] 0
x[2,0,2,1] 0
x[2,0,2,2] 1
x[2,0,2,3] 0
x[2,0,2,4] 0
x[2,0,3,0] 0
x[2,0,3,1] 0
x[2,0,3,2] 1
x[2,0,3,3] 0
x[2,0,3,4] 1
x[2,0,4,0] 0
x[2,0,4,1] 0
x[2,0,4,2] 0
x[2,0,4,3] 0
x[2,0,4,4] 0
x[2,1,0,0] 0
x[2,1,0,1] 0
x[2,1,0,2] 0
x[2,1,0,3] 0
x[2,1,0,4] 0
x[2,1,1,0] 0
x[2,1,1,1] 0
x[2,1,1,2] 0
x[2,1,1,3] 0
x[2,1,1,4] 0
x[2,1,2,0] 0
x[2,1,2,1] 0
x[2,1,2,2] 0
x[2,1,2,3] 1
x[2,1,2,4] 0
x[2,1,3,0] 1
x[2,1,3,1] 1
x[2,1,3,2] 0
x[2,1,3,3] 0
x[2,1,3,4] 0
x[2,1,4,0] 0
x[2,1,4,1] 0
x[2,1,4,2] 0
x[2,1,4,3] 0
x[2,1,4,4] 0
x[2,2,0,0] 0
x[2,2,0,1] 0
x[2,2,0,2] 0
x[2,2,0,3] 0
x[2,2,0,4] 0
x[2,2,1,0] 0
x[2,2,1,1] 0
x[2,2,1,2] 0
x[2,2,1,3] 0
x[2,2,1,4] 0
x[2,2,2,0] 0
x[2,2,2,1] 0
x[2,2,2,2] 0
x[2,2,2,3] 0
x[2,2,2,4] 0
x[2,2,3,0] 0
x[2,2,3,1] 0
x[2,2,3,2] 1
x[2,2,3,3] 0
x[2,2,3,4] 1
x[2,2,4,0] 0
x[2,2,4,1] 0
x[2,2,4,2] 0
x[2,2,4,3] 0
x[2,2,4,4] 0
x[2,3,0,0] 0
x[2,3,0,1] 0
x[2,3,0,2] 0
x[2,3,0,3] 0
x[2,3,0,4] 0
x[2,3,1,0] 0
x[2,3,1,1] 0
x[2,3,1,2] 0
x[2,3,1,3] 0
x[2,3,1,4] 0
x[2,3,2,0] 0
x[2,3,2,1] 0
x[2,3,2,2] 0
x[2,3,2,3] 0
x[2,3,2,4] 0
x[2,3,3,0] 0
x[2,3,3,1] 0
x[2,3,3,2] 0
x[2,3,3,3] 0
x[2,3,3,4] 0
x[2,3,4,0] 0
x[2,3,4,1] 0
x[2,3,4,2] 0
x[2,3,4,3] 0
x[2,3,4,4] 0
x[2,4,0,0] 0
x[2,4,0,1] 0
x[2,4,0,2] 0
x[2,4,0,3] 0
x[2,4,0,4] 0
x[2,4,1,0] 0
x[2,4,1,1] 0
x[2,4,1,2] 0
x[2,4,1,3] 0
x[2,4,1,4] 0
x[2,4,2,0] 0
x[2,4,2,1] 0
x[2,4,2,2] 0
x[2,4,2,3] 0
x[2,4,2,4] 0
x[2,4,3,0] 0
x[2,4,3,1] 0
x[2,4,3,2] 0
x[2,4,3,3] 1
x[2,4,3,4] 0
x[2,4,4,0] 0
x[2,4,4,1] 0
x[2,4,4,2] 0
x[2,4,4,3] 0
x[2,4,4,4] 0
x[3,0,0,0] 0
x[3,0,0,1] 0
x[3,0,0,2] 0
x[3,0,0,3] 0
x[3,0,0,4] 0
x[3,0,1,0] 0
x[3,0,1,1] 0
x[3,0,1,2] 0
x[3,0,1,3] 0
x[3,0,1,4] 0
x[3,0,2,0] 0
x[3,0,2,1] 0
x[3,0,2,2] 0
x[3,0,2,3] 0
x[3,0,2,4] 0
x[3,0,3,0] 0
x[3,0,3,1] 1
x[3,0,3,2] 0
x[3,0,3,3] 0
x[3,0,3,4] 0
x[3,0,4,0] 0
x[3,0,4,1] 0
x[3,0,4,2] 0
x[3,0,4,3] 0
x[3,0,4,4] 0
x[3,1,0,0] 0
x[3,1,0,1] 0
x[3,1,0,2] 0
x[3,1,0,3] 0
x[3,1,0,4] 0
x[3,1,1,0] 0
x[3,1,1,1] 0
x[3,1,1,2] 0
x[3,1,1,3] 0
x[3,1,1,4] 0
x[3,1,2,0] 0
x[3,1,2,1] 0
x[3,1,2,2] 0
x[3,1,2,3] 0
x[3,1,2,4] 0
x[3,1,3,0] 0
x[3,1,3,1] 0
x[3,1,3,2] 0
x[3,1,3,3] 0
x[3,1,3,4] 0
x[3,1,4,0] 0
x[3,1,4,1] 0
x[3,1,4,2] 0
x[3,1,4,3] 0
x[3,1,4,4] 0
x[3,2,0,0] 0
x[3,2,0,1] 0
x[3,2,0,2] 0
x[3,2,0,3] 0
x[3,2,0,4] 0
x[3,2,1,0] 0
x[3,2,1,1] 0
x[3,2,1,2] 0
x[3,2,1,3] 0
x[3,2,1,4] 0
x[3,2,2,0] 0
x[3,2,2,1] 0
x[3,2,2,2] 0
x[3,2,2,3] 0
x[3,2,2,4] 0
x[3,2,3,0] 0
x[3,2,3,1] 0
x[3,2,3,2] 0
x[3,2,3,3] 0
x[3,2,3,4] 1
x[3,2,4,0] 0
x[3,2,4,1] 0
x[3,2,4,2] 0
x[3,2,4,3] 0
x[3,2,4,4] 0
x[3,3,0,0] 0
x[3,3,0,1] 0
x[3,3,0,2] 0
x[3,3,0,3] 0
x[3,3,0,4] 0
x[3,3,1,0] 0
x[3,3,1,1] 0
x[3,3,1,2] 0
x[3,3,1,3] 0
x[3,3,1,4] 0
x[3,3,2,0] 0
x[3,3,2,1] 0
x[3,3,2,2] 0
x[3,3,2,3] 0
x[3,3,2,4] 0
x[3,3,3,0] 0
x[3,3,3,1] 0
x[3,3,3,2] 0
x[3,3,3,3] 0
x[3,3,3,4] 0
x[3,3,4,0] 0
x[3,3,4,1] 0
x[3,3,4,2] 0
x[3,3,4,3] 0
x[3,3,4,4] 0
x[3,4,0,0] 0
x[3,4,0,1] 0
x[3,4,0,2] 0
x[3,4,0,3] 0
x[3,4,0,4] 0
x[3,4,1,0] 0
x[3,4,1,1] 0
x[3,4,1,2] 0
x[3,4,1,3] 0
x[3,4,1,4] 0
x[3,4,2,0] 0
x[3,4,2,1] 0
x[3,4,2,2] 0
x[3,4,2,3] 0
x[3,4,2,4] 0
x[3,4,3,0] 0
x[3,4,3,1] 0
x[3,4,3,2] 0
x[3,4,3,3] 0
x[3,4,3,4] 0
x[3,4,4,0] 0
x[3,4,4,1] 0
x[3,4,4,2] 0
x[3,4,4,3] 0
x[3,4,4,4] 0
x[4,0,0,0] 0
x[4,0,0,1] 0
x[4,0,0,2] 0
x[4,0,0,3] 0
x[4,0,0,4] 0
x[4,0,1,0] 0
x[4,0,1,1] 0
x[4,0,1,2] 0
x[4,0,1,3] 0
x[4,0,1,4] 0
x[4,0,2,0] 0
x[4,0,2,1] 0
x[4,0,2,2] 0
x[4,0,2,3] 0
x[4,0,2,4] 0
x[4,0,3,0] 0
x[4,0,3,1] 0
x[4,0,3,2] 0
x[4,0,3,3] 0
x[4,0,3,4] 0
x[4,0,4,0] 0
x[4,0,4,1] 1
x[4,0,4,2] 0
x[4,0,4,3] 0
x[4,0,4,4] 0
x[4,1,0,0] 0
x[4,1,0,1] 0
x[4,1,0,2] 0
x[4,1,0,3] 0
x[4,1,0,4] 0
x[4,1,1,0] 0
x[4,1,1,1] 0
x[4,1,1,2] 0
x[4,1,1,3] 0
x[4,1,1,4] 0
x[4,1,2,0] 0
x[4,1,2,1] 0
x[4,1,2,2] 0
x[4,1,2,3] 0
x[4,1,2,4] 0
x[4,1,3,0] 0
x[4,1,3,1] 0
x[4,1,3,2] 0
x[4,1,3,3] 0
x[4,1,3,4] 0
x[4,1,4,0] 0
x[4,1,4,1] 0
x[4,1,4,2] 0
x[4,1,4,3] 0
x[4,1,4,4] 0
x[4,2,0,0] 0
x[4,2,0,1] 0
x[4,2,0,2] 0
x[4,2,0,3] 0
x[4,2,0,4] 0
x[4,2,1,0] 0
x[4,2,1,1] 0
x[4,2,1,2] 0
x[4,2,1,3] 0
x[4,2,1,4] 0
x[4,2,2,0] 0
x[4,2,2,1] 0
x[4,2,2,2] 0
x[4,2,2,3] 0
x[4,2,2,4] 0
x[4,2,3,0] 0
x[4,2,3,1] 0
x[4,2,3,2] 0
x[4,2,3,3] 0
x[4,2,3,4] 0
x[4,2,4,0] 0
x[4,2,4,1] 0
x[4,2,4,2] 0
x[4,2,4,3] 0
x[4,2,4,4] 1
x[4,3,0,0] 0
x[4,3,0,1] 0
x[4,3,0,2] 0
x[4,3,0,3] 0
x[4,3,0,4] 0
x[4,3,1,0] 0
x[4,3,1,1] 0
x[4,3,1,2] 0
x[4,3,1,3] 0
x[4,3,1,4] 0
x[4,3,2,0] 0
x[4,3,2,1] 0
x[4,3,2,2] 0
x[4,3,2,3] 0
x[4,3,2,4] 0
x[4,3,3,0] 0
x[4,3,3,1] 0
x[4,3,3,2] 0
x[4,3,3,3] 0
x[4,3,3,4] 0
x[4,3,4,0] 0
x[4,3,4,1] 0
x[4,3,4,2] 0
x[4,3,4,3] 0
x[4,3,4,4] 0
x[4,4,0,0] 0
x[4,4,0,1] 0
x[4,4,0,2] 0
x[4,4,0,3] 0
x[4,4,0,4] 0
x[4,4,1,0] 0
x[4,4,1,1] 0
x[4,4,1,2] 0
x[4,4,1,3] 0
x[4,4,1,4] 0
x[4,4,2,0] 0
x[4,4,2,1] 0
x[4,4,2,2] 0
x[4,4,2,3] 0
x[4,4,2,4] 0
x[4,4,3,0] 0
x[4,4,3,1] 0
x[4,4,3,2] 0
x[4,4,3,3] 0
x[4,4,3,4] 0
x[4,4,4,0] 0
x[4,4,4,1] 0
x[4,4,4,2] 0
x[4,4,4,3] 0
x[4,4,4,4] 0
s[0,0,1] 33
s[0,1,1] 20
s[0,2,0] 1
s[0,3,1] 0
s[0,4,2] 3
s[1,0,1] 100
s[1,1,1] 87
s[1,2,1] 39
s[1,3,1] 76
s[1,4,1] 67
s[2,0,2] 41
s[2,1,0] 39
s[2,2,2] 28
s[2,3,0] 12
s[2,4,1] 10
s[3,0,0] 29
s[3,1,0] 18
s[3,2,2] 21
s[3,3,1] 4
s[3,4,2] 13
s[4,0,2] 68
s[4,1,2] 59
s[4,2,0] 56
s[4,3,1] 52
s[4,4,0] 49
Z_FO 286
